c Arquivo convertido de bcspwr03.mtx
p edge 118 179
e 1 2
e 2 3
e 3 6
e 3 118
e 4 5
e 4 6
e 5 14
e 5 116
e 6 115
e 6 117
e 7 8
e 7 14
e 8 9
e 9 13
e 9 117
e 10 13
e 10 117
e 11 12
e 11 14
e 12 13
e 13 14
e 13 116
e 15 16
e 15 26
e 16 17
e 17 26
e 17 118
e 18 19
e 18 26
e 19 118
e 20 26
e 21 26
e 21 117
e 22 26
e 22 109
e 23 25
e 23 109
e 24 25
e 24 118
e 25 26
e 25 118
e 27 36
e 27 112
e 28 31
e 28 36
e 28 111
e 28 115
e 29 31
e 29 108
e 30 31
e 31 110
e 32 35
e 32 111
e 33 34
e 33 35
e 33 112
e 34 35
e 34 36
e 34 112
e 35 111
e 37 38
e 37 40
e 38 40
e 38 53
e 39 40
e 39 114
e 40 114
e 41 42
e 41 53
e 42 43
e 42 113
e 43 53
e 43 110
e 44 45
e 44 53
e 45 52
e 46 47
e 46 52
e 47 49
e 47 53
e 48 51
e 48 52
e 48 112
e 49 50
e 50 51
e 51 52
e 51 53
e 51 112
e 52 112
e 53 110
e 53 111
e 53 113
e 54 56
e 55 59
e 55 75
e 56 57
e 56 59
e 57 58
e 58 59
e 58 116
e 59 75
e 59 110
e 60 61
e 60 75
e 61 65
e 62 63
e 62 65
e 63 108
e 64 65
e 64 74
e 64 107
e 65 75
e 65 108
e 65 110
e 66 67
e 66 73
e 67 106
e 68 72
e 68 74
e 69 72
e 69 73
e 70 71
e 70 72
e 72 73
e 72 74
e 73 106
e 75 110
e 76 78
e 76 107
e 77 78
e 77 106
e 78 93
e 78 106
e 78 107
e 79 93
e 79 108
e 80 93
e 80 108
e 81 82
e 81 93
e 82 106
e 83 92
e 84 92
e 85 91
e 85 92
e 86 87
e 86 90
e 86 93
e 87 90
e 87 92
e 87 93
e 88 89
e 88 90
e 88 93
e 89 90
e 90 91
e 93 106
e 94 95
e 94 97
e 95 98
e 96 97
e 96 117
e 97 103
e 97 109
e 98 116
e 99 100
e 99 103
e 100 113
e 101 102
e 101 103
e 102 114
e 103 114
e 104 109
e 104 114
e 105 107
e 105 108
e 107 108
e 109 117
e 114 115
